NAME : portcgen-41-957
COMMENT : portcgen N=41, seed=957
TYPE : TSP
DIMENSION : 41
EDGE_WEIGHT_TYPE : EUC_2D
NODE_COORD_SECTION
1 -37623 191959
2 -71782 -182096
3 86944 120473
4 -81583 -36205
5 -515276 -129588
6 67550 336353
7 248926 -120288
8 -157133 -93576
9 -185630 12444
10 -113392 -199895
11 191523 37026
12 58036 195966
13 211825 -238515
14 -5752 -76246
15 -257076 229978
16 167507 109339
17 -25312 198149
18 -87796 -126426
19 91735 96805
20 127703 -11588
21 36614 210348
22 17853 164906
23 -116773 -128708
24 -203692 13110
25 -13147 55024
26 55424 39708
27 -71105 94081
28 -45538 201810
29 80231 230018
30 223520 -99353
31 -297485 10180
32 -305930 -112516
33 13092 -158064
34 -308545 140903
35 -103315 262427
36 203866 -54112
37 -26041 -83414
38 119697 -180010
39 41013 87414
40 -177045 82269
41 57495 -260494
